; DUP2 PUSH cw_1 SWAP1 => PUSH cw_1 DUP3
(set-option :produce-proofs true)
; 
(set-info :status unknown)
(declare-fun storage_t ((_ BitVec 256) (_ BitVec 256) (_ BitVec 256) Int (_ BitVec 256)) (_ BitVec 256))
(declare-fun w_1 () (_ BitVec 256))
(declare-fun storage_s ((_ BitVec 256) (_ BitVec 256) (_ BitVec 256) Int (_ BitVec 256)) (_ BitVec 256))
(declare-fun exc_halt_t (Int) Bool)
(declare-fun exc_halt_s (Int) Bool)
(declare-fun stack_t ((_ BitVec 256) (_ BitVec 256) (_ BitVec 256) Int (_ BitVec 6)) (_ BitVec 256))
(declare-fun stack_s ((_ BitVec 256) (_ BitVec 256) (_ BitVec 256) Int (_ BitVec 6)) (_ BitVec 256))
(declare-fun sc_t (Int) (_ BitVec 6))
(declare-fun sc_s (Int) (_ BitVec 6))
(declare-fun used_gas_t ((_ BitVec 256) (_ BitVec 256) (_ BitVec 256) Int) Int)
(declare-fun used_gas_s ((_ BitVec 256) (_ BitVec 256) (_ BitVec 256) Int) Int)
(assert
 (exists ((x_0 (_ BitVec 256)) (x_1 (_ BitVec 256)) )(let (($x414 (forall ((w (_ BitVec 256)) )(let ((?x4664 (storage_t x_0 x_1 w_1 2 w)))
 (let ((?x8889 (storage_s x_0 x_1 w_1 3 w)))
 (= ?x8889 ?x4664))))
 ))
 (let (($x5252 (exc_halt_t 2)))
 (let (($x292 (exc_halt_s 3)))
 (let (($x9864 (= $x292 $x5252)))
 (let (($x11230 (forall ((n (_ BitVec 6)) )(let ((?x2293 (stack_t x_0 x_1 w_1 2 n)))
 (let ((?x11201 (stack_s x_0 x_1 w_1 3 n)))
 (let (($x3228 (= ?x11201 ?x2293)))
 (let ((?x2714 (sc_t 2)))
 (let (($x552 (bvsle ?x2714 n)))
 (or $x552 $x3228)))))))
 ))
 (let ((?x2714 (sc_t 2)))
 (let ((?x275 (sc_s 3)))
 (let (($x817 (= ?x275 ?x2714)))
 (let ((?x3855 (used_gas_t x_0 x_1 w_1 0)))
 (let ((?x9472 (used_gas_s x_0 x_1 w_1 0)))
 (let (($x2105 (= ?x9472 ?x3855)))
 (let (($x3031 (forall ((w (_ BitVec 256)) )(let ((?x444 (storage_t x_0 x_1 w_1 0 w)))
 (let ((?x2800 (storage_s x_0 x_1 w_1 0 w)))
 (= ?x2800 ?x444))))
 ))
 (let (($x56 (exc_halt_t 0)))
 (let (($x57 (exc_halt_s 0)))
 (let (($x58 (= $x57 $x56)))
 (let (($x3068 (forall ((n (_ BitVec 6)) )(let ((?x63 (sc_t 0)))
 (let (($x7453 (bvsle ?x63 n)))
 (let ((?x10911 (stack_t x_0 x_1 w_1 0 n)))
 (let ((?x4688 (stack_s x_0 x_1 w_1 0 n)))
 (let (($x2551 (= ?x4688 ?x10911)))
 (or $x2551 $x7453)))))))
 ))
 (let ((?x63 (sc_t 0)))
 (let ((?x72 (sc_s 0)))
 (let (($x73 (= ?x72 ?x63)))
 (let (($x3508 (exc_halt_t 1)))
 (let (($x1340 (not (= ((_ extract 6 6) (bvadd (_ bv1 7) (concat (_ bv0 1) (sc_t 1)))) (_ bv0 1)))))
 (let (($x3476 (forall ((w (_ BitVec 256)) )(let ((?x11208 (storage_t x_0 x_1 w_1 1 w)))
 (let ((?x4664 (storage_t x_0 x_1 w_1 2 w)))
 (= ?x4664 ?x11208))))
 ))
 (let (($x8935 (forall ((n (_ BitVec 6)) )(let ((?x3730 (stack_t x_0 x_1 w_1 1 n)))
 (let ((?x2293 (stack_t x_0 x_1 w_1 2 n)))
 (or (= ?x2293 ?x3730) (bvsle (bvadd (_ bv61 6) (sc_t 1)) n)))))
 ))
 (let (($x2756 (= ?x2714 (bvadd (_ bv1 6) (sc_t 1)))))
 (let (($x2883 (= (used_gas_t x_0 x_1 w_1 2) (+ 3 (used_gas_t x_0 x_1 w_1 1)))))
 (let (($x1374 (= (stack_t x_0 x_1 w_1 2 (bvadd (_ bv63 6) (sc_t 1))) (stack_t x_0 x_1 w_1 1 (bvadd (_ bv63 6) (sc_t 1))))))
 (let (($x2072 (= (stack_t x_0 x_1 w_1 2 (bvadd (_ bv62 6) (sc_t 1))) (stack_t x_0 x_1 w_1 1 (bvadd (_ bv62 6) (sc_t 1))))))
 (let ((?x8347 (sc_t 1)))
 (let ((?x7903 (bvadd (_ bv61 6) ?x8347)))
 (let ((?x11106 (stack_t x_0 x_1 w_1 1 ?x7903)))
 (let (($x9130 (= $x3508 (or $x56 (not (= ((_ extract 6 6) (bvadd (_ bv1 7) (concat (_ bv0 1) ?x63))) (_ bv0 1)))))))
 (let (($x11151 (forall ((w (_ BitVec 256)) )(let ((?x444 (storage_t x_0 x_1 w_1 0 w)))
 (let ((?x11208 (storage_t x_0 x_1 w_1 1 w)))
 (= ?x11208 ?x444))))
 ))
 (let (($x6695 (forall ((n (_ BitVec 6)) )(let ((?x63 (sc_t 0)))
 (let (($x7453 (bvsle ?x63 n)))
 (let ((?x10911 (stack_t x_0 x_1 w_1 0 n)))
 (let ((?x3730 (stack_t x_0 x_1 w_1 1 n)))
 (or (= ?x3730 ?x10911) $x7453))))))
 ))
 (let (($x6213 (= ?x8347 (bvadd (_ bv1 6) ?x63))))
 (let (($x6649 (= $x292 (or (exc_halt_s 2) (not (bvsle (_ bv0 6) (bvadd (_ bv62 6) (sc_s 2))))))))
 (let (($x5738 (forall ((w (_ BitVec 256)) )(let ((?x3689 (storage_s x_0 x_1 w_1 2 w)))
 (let ((?x8889 (storage_s x_0 x_1 w_1 3 w)))
 (= ?x8889 ?x3689))))
 ))
 (let (($x10297 (forall ((n (_ BitVec 6)) )(let ((?x1327 (stack_s x_0 x_1 w_1 2 n)))
 (let ((?x11201 (stack_s x_0 x_1 w_1 3 n)))
 (let ((?x218 (sc_s 2)))
 (let ((?x2513 (bvadd (_ bv62 6) ?x218)))
 (let (($x4614 (bvsle ?x2513 n)))
 (or $x4614 (= ?x11201 ?x1327))))))))
 ))
 (let ((?x218 (sc_s 2)))
 (let (($x8987 (= ?x275 ?x218)))
 (let (($x10527 (= (used_gas_s x_0 x_1 w_1 3) (+ 3 (used_gas_s x_0 x_1 w_1 2)))))
 (let (($x10931 (= (stack_s x_0 x_1 w_1 3 (bvadd (_ bv62 6) ?x275)) (stack_s x_0 x_1 w_1 2 (bvadd (_ bv63 6) ?x218)))))
 (let (($x3150 (= (stack_s x_0 x_1 w_1 3 (bvadd (_ bv63 6) ?x275)) (stack_s x_0 x_1 w_1 2 (bvadd (_ bv62 6) ?x218)))))
 (let (($x8154 (not (= ((_ extract 6 6) (bvadd (_ bv1 7) (concat (_ bv0 1) (sc_s 1)))) (_ bv0 1)))))
 (let (($x189 (exc_halt_s 1)))
 (let (($x247 (exc_halt_s 2)))
 (let (($x961 (= $x247 (or $x189 $x8154))))
 (let (($x9543 (forall ((w (_ BitVec 256)) )(let ((?x5373 (storage_s x_0 x_1 w_1 1 w)))
 (let ((?x3689 (storage_s x_0 x_1 w_1 2 w)))
 (= ?x3689 ?x5373))))
 ))
 (let (($x9850 (forall ((n (_ BitVec 6)) )(let ((?x2781 (stack_s x_0 x_1 w_1 1 n)))
 (let ((?x1327 (stack_s x_0 x_1 w_1 2 n)))
 (let ((?x154 (sc_s 1)))
 (let (($x1556 (bvsle ?x154 n)))
 (or $x1556 (= ?x1327 ?x2781)))))))
 ))
 (let (($x1362 (= ?x218 (bvadd (_ bv1 6) (sc_s 1)))))
 (let ((?x363 (used_gas_s x_0 x_1 w_1 2)))
 (let (($x10528 (not (= ((_ extract 6 6) (bvadd (_ bv1 7) (concat (_ bv0 1) ?x72))) (_ bv0 1)))))
 (let (($x9486 (not (bvsle (_ bv0 6) (bvadd (_ bv62 6) ?x72)))))
 (let (($x3827 (forall ((w (_ BitVec 256)) )(let ((?x2800 (storage_s x_0 x_1 w_1 0 w)))
 (let ((?x5373 (storage_s x_0 x_1 w_1 1 w)))
 (= ?x5373 ?x2800))))
 ))
 (let (($x5060 (forall ((n (_ BitVec 6)) )(let ((?x72 (sc_s 0)))
 (let ((?x531 (bvadd (_ bv62 6) ?x72)))
 (let (($x5592 (bvsle ?x531 n)))
 (let ((?x4688 (stack_s x_0 x_1 w_1 0 n)))
 (let ((?x2781 (stack_s x_0 x_1 w_1 1 n)))
 (or (= ?x2781 ?x4688) $x5592)))))))
 ))
 (let ((?x154 (sc_s 1)))
 (let (($x11639 (= ?x154 (bvadd (_ bv1 6) ?x72))))
 (let (($x10785 (= (stack_s x_0 x_1 w_1 1 (bvadd (_ bv63 6) ?x72)) (stack_s x_0 x_1 w_1 0 (bvadd (_ bv63 6) ?x72)))))
 (let ((?x531 (bvadd (_ bv62 6) ?x72)))
 (let ((?x3465 (stack_s x_0 x_1 w_1 0 ?x531)))
 (let (($x4992 (forall ((w (_ BitVec 256)) )(let ((?x2800 (storage_s x_0 x_1 w_1 0 w)))
 (= ?x2800 (_ bv0 256))))
 ))
 (let (($x10286 (= ?x9472 0)))
 (let (($x6901 (not $x57)))
 (let (($x2799 (= (stack_s x_0 x_1 w_1 0 (_ bv1 6)) x_1)))
 (let (($x4643 (= (stack_s x_0 x_1 w_1 0 (_ bv0 6)) x_0)))
 (let (($x6396 (= ?x72 (_ bv2 6))))
 (and $x6396 $x4643 $x2799 $x6901 $x10286 $x4992 (= (stack_s x_0 x_1 w_1 1 (bvadd (_ bv63 6) ?x154)) ?x3465) (= (stack_s x_0 x_1 w_1 1 ?x531) ?x3465) $x10785 (= (used_gas_s x_0 x_1 w_1 1) (+ 3 ?x9472)) $x11639 $x5060 $x3827 (= $x189 (or $x57 $x9486 $x10528)) (= (stack_s x_0 x_1 w_1 2 ?x154) w_1) (= ?x363 (+ 3 (used_gas_s x_0 x_1 w_1 1))) $x1362 $x9850 $x9543 $x961 $x3150 $x10931 $x10527 $x8987 $x10297 $x5738 $x6649 (= (stack_t x_0 x_1 w_1 1 ?x63) w_1) (= (used_gas_t x_0 x_1 w_1 1) (+ 3 ?x3855)) $x6213 $x6695 $x11151 $x9130 (= (stack_t x_0 x_1 w_1 2 (bvadd (_ bv63 6) ?x2714)) ?x11106) (= (stack_t x_0 x_1 w_1 2 ?x7903) ?x11106) $x2072 $x1374 $x2883 $x2756 $x8935 $x3476 (= $x5252 (or $x1340 $x3508 (not (bvsle (_ bv0 6) ?x7903)))) $x73 $x3068 $x58 $x3031 $x2105 (not (and $x817 $x11230 $x9864 $x414)))))))))))))))))))))))))))))))))))))))))))))))))))))))))))))))))))))
 )
(check-sat)
(get-proof)
